DIMACS_lns/graph-1000-902.col
p edge 1000 1839
e 1 790
e 1 990
e 1 86
e 2 753
e 2 984
e 2 165
e 2 235
e 2 847
e 5 220
e 5 150
e 5 593
e 5 620
e 5 102
e 6 408
e 6 95
e 6 337
e 6 193
e 7 577
e 7 586
e 7 517
e 7 579
e 8 175
e 8 244
e 8 340
e 8 738
e 8 646
e 8 86
e 8 743
e 8 776
e 8 857
e 10 702
e 10 686
e 10 685
e 11 729
e 11 424
e 11 857
e 12 48
e 12 275
e 12 221
e 12 491
e 12 337
e 13 609
e 13 308
e 13 239
e 13 136
e 14 883
e 14 577
e 14 483
e 14 144
e 15 645
e 15 371
e 15 279
e 15 882
e 15 599
e 15 309
e 17 889
e 17 346
e 17 922
e 17 542
e 18 637
e 18 689
e 18 307
e 19 431
e 19 514
e 19 762
e 20 130
e 20 256
e 20 641
e 20 640
e 20 403
e 22 91
e 22 109
e 22 206
e 22 833
e 23 908
e 23 471
e 23 94
e 23 714
e 24 711
e 24 447
e 24 501
e 24 813
e 24 671
e 24 860
e 26 620
e 26 780
e 26 979
e 28 319
e 28 845
e 28 761
e 28 747
e 28 607
e 29 138
e 29 749
e 29 591
e 29 635
e 29 186
e 29 237
e 29 779
e 29 82
e 30 218
e 30 971
e 30 334
e 30 132
e 30 51
e 31 927
e 31 824
e 31 515
e 31 545
e 32 127
e 32 408
e 32 871
e 33 886
e 33 573
e 33 261
e 34 396
e 34 818
e 34 945
e 34 562
e 36 318
e 36 538
e 36 403
e 38 460
e 38 597
e 38 332
e 38 766
e 38 227
e 38 273
e 39 341
e 39 540
e 39 271
e 39 954
e 39 764
e 41 343
e 41 730
e 41 793
e 43 585
e 43 378
e 43 992
e 46 653
e 46 881
e 46 950
e 46 474
e 47 262
e 47 870
e 47 108
e 47 271
e 48 511
e 48 264
e 48 519
e 48 525
e 48 316
e 49 498
e 49 592
e 49 142
e 49 407
e 50 425
e 50 735
e 50 292
e 51 118
e 51 876
e 51 678
e 51 685
e 51 588
e 51 650
e 51 942
e 54 885
e 54 961
e 54 193
e 54 497
e 55 736
e 55 140
e 55 773
e 56 583
e 56 313
e 56 534
e 61 479
e 61 161
e 61 427
e 61 355
e 61 658
e 62 393
e 62 677
e 62 79
e 62 85
e 64 351
e 64 964
e 64 986
e 65 697
e 65 650
e 65 670
e 65 653
e 66 263
e 66 501
e 66 740
e 66 954
e 66 924
e 66 492
e 68 472
e 68 359
e 68 983
e 68 760
e 68 261
e 68 69
e 68 332
e 68 523
e 68 249
e 68 275
e 68 87
e 69 272
e 69 943
e 69 970
e 69 427
e 69 919
e 71 657
e 71 188
e 71 310
e 72 617
e 72 659
e 72 705
e 72 224
e 73 715
e 73 438
e 73 352
e 75 663
e 75 328
e 75 607
e 75 842
e 75 382
e 75 385
e 76 200
e 76 662
e 76 522
e 76 977
e 78 863
e 78 237
e 78 569
e 78 353
e 78 560
e 79 794
e 79 497
e 79 249
e 79 593
e 80 289
e 80 241
e 80 173
e 80 850
e 81 948
e 81 412
e 81 179
e 81 501
e 81 140
e 81 853
e 82 187
e 82 776
e 83 717
e 83 696
e 83 680
e 83 207
e 83 100
e 85 523
e 85 931
e 86 268
e 86 890
e 86 480
e 87 133
e 87 558
e 87 574
e 87 508
e 87 104
e 87 664
e 87 599
e 87 680
e 88 486
e 88 549
e 88 342
e 88 226
e 88 778
e 88 287
e 89 445
e 89 560
e 89 401
e 89 994
e 89 304
e 90 206
e 90 519
e 90 212
e 91 711
e 91 431
e 91 894
e 91 319
e 93 210
e 93 214
e 93 546
e 94 528
e 94 589
e 94 158
e 94 990
e 94 431
e 94 594
e 95 338
e 95 924
e 95 155
e 95 470
e 95 591
e 95 954
e 96 242
e 96 194
e 96 201
e 96 893
e 96 779
e 96 982
e 96 393
e 97 850
e 97 99
e 97 508
e 97 667
e 97 661
e 97 122
e 97 599
e 97 222
e 98 493
e 98 888
e 98 425
e 98 551
e 99 954
e 99 678
e 100 733
e 100 643
e 101 258
e 101 403
e 101 339
e 101 270
e 101 950
e 101 582
e 102 264
e 102 978
e 102 356
e 103 632
e 103 590
e 103 886
e 103 889
e 104 708
e 104 852
e 104 636
e 104 363
e 104 677
e 107 109
e 107 249
e 107 872
e 107 337
e 107 596
e 108 357
e 108 282
e 108 927
e 108 251
e 108 511
e 109 349
e 109 774
e 109 952
e 109 909
e 110 263
e 110 357
e 110 506
e 110 607
e 110 288
e 110 595
e 112 367
e 112 596
e 112 978
e 112 508
e 112 509
e 112 267
e 113 432
e 113 842
e 113 415
e 116 389
e 116 190
e 116 405
e 116 663
e 116 870
e 116 507
e 117 574
e 117 514
e 117 470
e 118 705
e 118 408
e 118 953
e 118 885
e 118 449
e 119 188
e 119 682
e 119 607
e 120 955
e 120 457
e 120 930
e 120 736
e 120 517
e 120 627
e 120 632
e 120 304
e 120 917
e 122 243
e 122 348
e 124 385
e 124 800
e 124 252
e 124 466
e 125 219
e 125 383
e 125 558
e 127 641
e 127 165
e 127 385
e 127 349
e 127 356
e 128 221
e 128 247
e 128 539
e 128 142
e 128 602
e 130 150
e 130 641
e 130 911
e 130 173
e 130 408
e 131 554
e 131 147
e 131 133
e 132 903
e 132 415
e 132 428
e 133 285
e 133 289
e 133 217
e 133 865
e 134 762
e 134 838
e 134 724
e 134 663
e 135 984
e 135 406
e 135 640
e 136 475
e 136 325
e 136 420
e 136 364
e 136 575
e 138 194
e 138 659
e 138 963
e 138 688
e 138 842
e 139 989
e 139 969
e 139 619
e 139 166
e 139 644
e 140 657
e 140 872
e 140 664
e 142 524
e 142 596
e 142 367
e 142 645
e 142 546
e 142 764
e 142 763
e 143 594
e 143 778
e 143 709
e 143 170
e 143 204
e 144 424
e 144 242
e 147 405
e 147 422
e 147 168
e 147 848
e 149 635
e 149 626
e 149 210
e 149 355
e 149 527
e 149 727
e 150 189
e 150 458
e 150 890
e 151 606
e 151 755
e 151 380
e 151 440
e 151 986
e 152 586
e 152 340
e 152 655
e 152 259
e 152 201
e 152 620
e 153 608
e 153 757
e 153 505
e 154 743
e 154 593
e 154 282
e 154 354
e 154 195
e 155 597
e 155 274
e 156 501
e 156 352
e 156 358
e 156 466
e 157 799
e 157 875
e 157 498
e 158 640
e 158 635
e 159 957
e 159 850
e 159 893
e 159 710
e 161 199
e 161 496
e 161 472
e 163 389
e 163 641
e 163 727
e 163 378
e 165 504
e 165 792
e 165 944
e 165 199
e 166 901
e 166 835
e 166 776
e 166 259
e 167 409
e 167 300
e 167 925
e 168 331
e 168 789
e 169 902
e 169 388
e 169 411
e 169 194
e 170 855
e 170 809
e 170 875
e 173 197
e 173 578
e 173 447
e 173 409
e 174 327
e 174 506
e 174 889
e 175 671
e 175 817
e 178 664
e 178 186
e 178 1000
e 178 362
e 178 616
e 179 721
e 179 333
e 179 183
e 180 645
e 180 969
e 180 585
e 180 481
e 181 531
e 181 932
e 181 272
e 181 448
e 181 667
e 182 446
e 182 580
e 182 682
e 182 546
e 183 441
e 183 342
e 183 593
e 185 793
e 185 938
e 185 339
e 186 267
e 186 649
e 186 296
e 186 970
e 186 592
e 186 396
e 186 363
e 187 959
e 187 890
e 187 356
e 187 883
e 188 528
e 189 779
e 189 482
e 189 569
e 189 698
e 189 522
e 189 979
e 190 579
e 190 908
e 190 523
e 190 463
e 190 987
e 190 605
e 191 367
e 191 957
e 191 876
e 191 931
e 191 619
e 191 497
e 193 640
e 193 299
e 194 304
e 194 633
e 194 578
e 195 686
e 195 264
e 195 820
e 196 729
e 196 363
e 196 523
e 196 608
e 196 243
e 196 532
e 196 679
e 197 214
e 197 655
e 197 350
e 197 375
e 198 497
e 198 378
e 198 538
e 198 335
e 199 909
e 199 326
e 200 950
e 200 297
e 200 408
e 201 551
e 201 742
e 201 469
e 201 371
e 201 683
e 202 257
e 202 582
e 202 512
e 202 256
e 203 961
e 203 885
e 203 711
e 203 464
e 204 493
e 204 538
e 204 515
e 206 790
e 207 1000
e 207 402
e 207 262
e 208 263
e 208 437
e 208 902
e 209 746
e 209 622
e 209 951
e 209 634
e 209 406
e 209 479
e 210 582
e 210 530
e 211 224
e 211 929
e 211 408
e 211 383
e 211 446
e 211 480
e 212 853
e 212 219
e 212 718
e 212 874
e 212 799
e 213 523
e 213 267
e 213 473
e 213 890
e 213 714
e 214 402
e 214 790
e 214 696
e 214 769
e 214 665
e 214 453
e 214 707
e 215 507
e 215 578
e 215 502
e 217 538
e 217 285
e 217 609
e 217 384
e 217 420
e 217 898
e 217 931
e 217 243
e 218 966
e 218 907
e 219 750
e 219 358
e 219 845
e 219 601
e 219 619
e 220 390
e 220 981
e 220 645
e 220 879
e 221 851
e 221 698
e 221 234
e 222 419
e 222 730
e 222 531
e 223 347
e 223 670
e 223 336
e 223 235
e 223 697
e 223 527
e 224 808
e 224 585
e 226 228
e 226 887
e 227 443
e 227 501
e 228 385
e 228 370
e 230 287
e 230 305
e 230 246
e 230 563
e 232 901
e 232 251
e 232 389
e 232 353
e 232 723
e 232 673
e 234 576
e 234 765
e 235 594
e 235 989
e 235 807
e 235 619
e 237 657
e 237 541
e 237 969
e 238 357
e 238 764
e 238 457
e 238 724
e 239 310
e 239 324
e 239 876
e 241 900
e 241 517
e 241 866
e 242 640
e 243 410
e 243 482
e 243 470
e 244 818
e 244 842
e 244 486
e 244 262
e 246 507
e 246 665
e 246 958
e 246 722
e 246 690
e 247 970
e 247 765
e 248 355
e 248 686
e 248 367
e 248 724
e 248 646
e 249 966
e 250 568
e 250 260
e 250 492
e 251 797
e 251 458
e 251 776
e 252 373
e 252 929
e 252 927
e 254 441
e 254 272
e 254 606
e 254 781
e 255 833
e 255 944
e 255 863
e 255 984
e 256 882
e 256 995
e 256 574
e 256 613
e 256 499
e 256 512
e 256 945
e 256 308
e 257 610
e 257 742
e 257 583
e 257 909
e 258 317
e 258 900
e 258 658
e 258 533
e 258 366
e 259 263
e 259 644
e 260 539
e 260 635
e 260 547
e 260 398
e 260 620
e 261 651
e 261 550
e 261 282
e 261 497
e 262 646
e 262 469
e 262 513
e 263 664
e 263 518
e 263 445
e 264 410
e 264 831
e 265 329
e 265 576
e 265 858
e 265 890
e 265 417
e 267 744
e 267 538
e 267 570
e 267 602
e 267 476
e 267 438
e 268 633
e 268 975
e 268 590
e 270 533
e 270 731
e 271 617
e 271 419
e 272 707
e 272 916
e 273 304
e 273 574
e 273 512
e 273 581
e 274 645
e 274 532
e 274 599
e 275 369
e 278 322
e 278 370
e 278 681
e 279 836
e 279 832
e 281 459
e 281 655
e 281 748
e 281 505
e 281 620
e 281 843
e 282 650
e 282 630
e 284 682
e 284 511
e 284 438
e 284 512
e 284 389
e 285 852
e 285 734
e 287 296
e 287 840
e 287 994
e 287 749
e 288 438
e 288 366
e 288 392
e 288 393
e 288 304
e 289 796
e 292 717
e 292 697
e 292 484
e 293 940
e 293 818
e 293 820
e 296 396
e 296 497
e 296 609
e 297 903
e 297 709
e 297 992
e 297 866
e 298 689
e 298 843
e 298 311
e 298 726
e 298 697
e 299 466
e 299 705
e 300 375
e 300 390
e 302 801
e 302 644
e 302 501
e 303 398
e 303 840
e 303 711
e 303 376
e 303 754
e 303 561
e 303 967
e 304 635
e 304 830
e 305 553
e 305 923
e 305 669
e 305 855
e 307 350
e 307 332
e 307 472
e 307 499
e 307 518
e 308 711
e 308 905
e 309 799
e 309 520
e 309 860
e 309 671
e 309 349
e 309 901
e 309 594
e 310 460
e 310 904
e 310 997
e 311 956
e 311 928
e 311 845
e 313 622
e 313 993
e 316 898
e 316 633
e 316 850
e 317 944
e 317 956
e 317 334
e 318 831
e 318 655
e 318 569
e 318 664
e 318 651
e 319 764
e 319 531
e 319 457
e 322 339
e 322 557
e 322 420
e 322 519
e 323 559
e 323 593
e 323 432
e 323 869
e 324 517
e 324 997
e 324 955
e 324 589
e 325 947
e 325 705
e 325 406
e 325 930
e 325 464
e 326 499
e 326 795
e 326 894
e 326 449
e 327 595
e 327 712
e 328 384
e 328 771
e 328 432
e 328 969
e 328 335
e 329 677
e 329 931
e 329 805
e 331 697
e 331 572
e 331 975
e 331 343
e 331 773
e 331 986
e 333 911
e 333 415
e 334 669
e 334 569
e 334 425
e 334 836
e 334 622
e 335 955
e 335 396
e 336 528
e 336 561
e 337 354
e 337 527
e 338 354
e 338 971
e 338 952
e 338 834
e 339 796
e 339 357
e 339 748
e 340 723
e 341 900
e 341 691
e 341 626
e 341 856
e 341 563
e 342 669
e 342 492
e 342 347
e 342 917
e 342 817
e 343 936
e 343 793
e 343 852
e 345 919
e 345 653
e 345 504
e 346 409
e 346 967
e 346 480
e 346 532
e 347 601
e 347 885
e 347 749
e 348 905
e 348 766
e 348 794
e 349 945
e 350 556
e 350 498
e 350 941
e 350 776
e 350 927
e 351 448
e 351 936
e 352 915
e 352 643
e 352 743
e 352 694
e 353 740
e 354 441
e 355 520
e 355 948
e 355 797
e 356 904
e 356 795
e 357 388
e 357 878
e 357 698
e 357 753
e 358 520
e 359 458
e 359 898
e 359 892
e 359 895
e 361 898
e 361 699
e 361 948
e 361 591
e 361 634
e 362 775
e 362 934
e 363 609
e 364 564
e 364 638
e 364 627
e 364 685
e 364 491
e 366 634
e 366 636
e 366 766
e 366 475
e 366 622
e 367 825
e 367 597
e 367 563
e 367 496
e 367 928
e 368 944
e 368 676
e 368 689
e 368 907
e 369 428
e 369 935
e 369 733
e 370 509
e 370 697
e 371 714
e 373 837
e 373 955
e 375 447
e 375 474
e 375 858
e 375 740
e 376 883
e 376 819
e 377 780
e 377 857
e 377 973
e 378 580
e 378 721
e 378 890
e 378 700
e 380 679
e 380 573
e 381 778
e 381 911
e 381 825
e 381 817
e 382 940
e 382 863
e 382 780
e 382 834
e 382 896
e 383 951
e 383 384
e 383 481
e 383 467
e 383 896
e 384 924
e 384 517
e 385 646
e 385 828
e 385 773
e 385 846
e 385 453
e 385 499
e 385 409
e 385 517
e 388 620
e 388 681
e 388 919
e 390 457
e 392 445
e 392 903
e 392 746
e 392 754
e 396 461
e 396 738
e 396 832
e 396 544
e 398 971
e 398 531
e 398 977
e 398 721
e 400 568
e 400 425
e 400 840
e 401 870
e 401 469
e 401 707
e 401 834
e 402 648
e 402 691
e 403 485
e 403 450
e 403 535
e 403 840
e 404 593
e 404 587
e 404 889
e 404 835
e 405 938
e 405 776
e 406 768
e 406 626
e 406 497
e 407 729
e 407 893
e 407 964
e 407 845
e 407 755
e 408 876
e 408 863
e 408 964
e 410 702
e 410 800
e 410 642
e 411 967
e 411 851
e 412 904
e 412 763
e 415 718
e 417 714
e 417 794
e 419 743
e 419 479
e 419 460
e 419 874
e 420 594
e 421 708
e 421 810
e 421 624
e 422 848
e 422 976
e 423 540
e 423 489
e 423 568
e 424 822
e 424 741
e 424 832
e 424 696
e 424 881
e 425 909
e 425 858
e 426 770
e 426 985
e 426 564
e 426 864
e 426 716
e 426 995
e 427 782
e 428 980
e 428 740
e 428 562
e 431 565
e 431 674
e 432 533
e 432 711
e 432 746
e 435 650
e 435 912
e 435 809
e 437 875
e 437 710
e 437 578
e 438 776
e 438 702
e 438 450
e 438 674
e 440 557
e 440 591
e 440 940
e 440 746
e 440 455
e 441 917
e 441 935
e 441 797
e 442 880
e 442 718
e 442 741
e 443 940
e 443 755
e 443 741
e 445 588
e 445 625
e 446 774
e 446 874
e 447 722
e 447 568
e 447 729
e 448 491
e 449 735
e 450 624
e 450 497
e 453 534
e 453 669
e 453 948
e 453 813
e 453 785
e 455 648
e 455 932
e 455 970
e 457 503
e 457 606
e 457 512
e 457 631
e 458 662
e 459 661
e 459 476
e 459 759
e 460 947
e 460 554
e 460 661
e 461 489
e 461 614
e 462 616
e 462 876
e 462 643
e 462 682
e 462 924
e 463 994
e 463 869
e 464 781
e 464 664
e 464 828
e 466 728
e 467 892
e 467 470
e 467 723
e 468 819
e 468 535
e 468 656
e 468 806
e 469 731
e 470 557
e 470 757
e 470 983
e 470 657
e 471 649
e 471 934
e 471 662
e 472 646
e 472 662
e 472 736
e 473 771
e 473 746
e 473 952
e 474 575
e 474 661
e 474 859
e 475 831
e 475 930
e 475 656
e 476 910
e 476 626
e 479 679
e 479 609
e 479 900
e 480 838
e 480 591
e 480 605
e 481 596
e 482 662
e 483 721
e 483 942
e 483 609
e 484 995
e 484 943
e 485 691
e 485 983
e 485 729
e 485 592
e 485 851
e 486 847
e 486 696
e 486 860
e 486 501
e 489 889
e 492 919
e 492 681
e 492 766
e 493 701
e 493 770
e 496 586
e 497 620
e 497 895
e 497 564
e 498 515
e 498 913
e 499 676
e 499 525
e 501 509
e 501 620
e 501 536
e 501 885
e 502 646
e 502 714
e 502 776
e 503 767
e 503 593
e 504 881
e 505 916
e 506 905
e 506 901
e 507 658
e 507 980
e 508 790
e 508 803
e 509 838
e 509 769
e 511 750
e 511 857
e 511 723
e 512 737
e 512 781
e 513 805
e 513 780
e 514 978
e 514 638
e 514 807
e 514 951
e 514 649
e 517 834
e 517 796
e 518 659
e 518 684
e 518 802
e 519 989
e 520 588
e 520 699
e 520 763
e 522 696
e 522 643
e 523 830
e 523 926
e 524 684
e 524 835
e 525 711
e 525 834
e 525 563
e 525 930
e 528 861
e 528 822
e 530 880
e 530 769
e 530 593
e 530 626
e 532 543
e 532 556
e 532 550
e 532 866
e 533 661
e 533 605
e 534 994
e 534 717
e 535 541
e 535 882
e 535 715
e 535 958
e 536 680
e 536 572
e 538 748
e 538 608
e 538 839
e 538 822
e 539 878
e 540 806
e 540 819
e 541 571
e 541 836
e 541 561
e 542 683
e 542 711
e 542 902
e 543 794
e 543 971
e 544 689
e 544 993
e 544 751
e 545 789
e 545 796
e 546 722
e 546 1000
e 547 581
e 547 992
e 549 769
e 549 721
e 550 556
e 550 887
e 551 856
e 551 728
e 551 694
e 551 847
e 553 767
e 553 878
e 553 910
e 554 967
e 556 853
e 556 969
e 558 963
e 559 888
e 559 664
e 560 588
e 560 645
e 561 749
e 562 815
e 562 573
e 562 770
e 562 781
e 563 655
e 564 954
e 565 583
e 565 912
e 568 847
e 568 637
e 568 686
e 569 859
e 570 793
e 570 857
e 570 797
e 571 646
e 571 779
e 572 759
e 572 903
e 573 915
e 573 656
e 573 742
e 574 961
e 574 846
e 575 808
e 575 731
e 575 995
e 575 961
e 576 806
e 577 736
e 577 754
e 577 751
e 577 738
e 578 678
e 578 726
e 579 871
e 580 985
e 581 617
e 583 768
e 585 871
e 586 790
e 587 718
e 587 815
e 588 941
e 588 929
e 589 641
e 589 912
e 590 864
e 592 743
e 592 635
e 594 978
e 595 622
e 596 722
e 596 997
e 596 735
e 599 990
e 601 957
e 601 664
e 602 904
e 602 825
e 605 609
e 606 700
e 606 686
e 606 673
e 607 955
e 607 699
e 607 907
e 608 861
e 608 889
e 608 881
e 609 986
e 609 731
e 610 809
e 610 925
e 612 929
e 612 705
e 612 716
e 613 741
e 613 987
e 613 837
e 613 944
e 613 948
e 614 822
e 614 944
e 616 690
e 619 760
e 619 851
e 619 753
e 622 869
e 624 917
e 625 663
e 625 658
e 626 850
e 626 928
e 627 863
e 627 997
e 627 630
e 627 966
e 627 964
e 629 761
e 629 760
e 629 833
e 630 828
e 631 886
e 631 948
e 632 880
e 633 792
e 633 890
e 634 813
e 635 930
e 636 640
e 636 979
e 637 773
e 638 824
e 638 907
e 641 771
e 642 659
e 642 865
e 643 763
e 644 942
e 644 696
e 645 709
e 645 755
e 645 833
e 646 726
e 648 922
e 648 919
e 649 676
e 650 951
e 650 774
e 650 903
e 650 762
e 651 881
e 651 973
e 653 820
e 655 716
e 655 656
e 657 981
e 657 863
e 658 878
e 659 728
e 661 836
e 662 864
e 663 879
e 663 698
e 664 679
e 665 778
e 665 886
e 665 708
e 665 912
e 667 953
e 667 916
e 667 927
e 669 872
e 670 975
e 671 993
e 671 678
e 671 889
e 673 976
e 673 715
e 674 741
e 674 747
e 676 963
e 677 717
e 677 795
e 677 874
e 678 901
e 678 775
e 679 904
e 681 895
e 681 993
e 681 846
e 682 848
e 683 870
e 684 995
e 686 776
e 686 744
e 688 724
e 688 855
e 688 714
e 689 997
e 689 975
e 690 945
e 690 698
e 691 701
e 694 898
e 694 977
e 697 937
e 697 768
e 698 707
e 700 722
e 700 871
e 701 882
e 702 982
e 707 760
e 707 793
e 708 923
e 708 778
e 710 837
e 711 981
e 712 932
e 712 837
e 715 874
e 716 741
e 718 895
e 718 984
e 721 831
e 721 966
e 723 874
e 727 815
e 727 754
e 728 852
e 728 843
e 730 847
e 731 790
e 733 936
e 733 879
e 733 843
e 734 925
e 734 984
e 735 865
e 735 976
e 737 834
e 737 806
e 738 769
e 738 898
e 743 908
e 744 802
e 744 956
e 746 980
e 746 969
e 747 768
e 748 959
e 748 790
e 749 808
e 750 806
e 750 987
e 751 912
e 753 953
e 753 859
e 755 794
e 755 761
e 757 981
e 759 887
e 759 852
e 759 947
e 760 959
e 764 792
e 764 900
e 765 953
e 767 893
e 767 926
e 775 879
e 776 940
e 779 951
e 780 882
e 781 892
e 782 808
e 782 818
e 782 790
e 785 903
e 785 820
e 789 964
e 790 988
e 792 903
e 792 886
e 792 850
e 794 900
e 794 839
e 795 815
e 797 830
e 797 856
e 800 803
e 801 855
e 801 898
e 801 987
e 802 975
e 803 819
e 805 934
e 807 903
e 807 840
e 809 880
e 809 988
e 809 957
e 810 957
e 810 988
e 815 846
e 818 825
e 819 992
e 819 977
e 824 915
e 825 985
e 828 923
e 830 874
e 835 900
e 836 912
e 837 876
e 837 926
e 838 912
e 839 864
e 842 958
e 842 931
e 845 973
e 846 922
e 851 985
e 851 924
e 856 943
e 857 952
e 860 931
e 861 912
e 865 937
e 869 905
e 871 948
e 872 995
e 874 910
e 874 935
e 876 916
e 880 953
e 881 967
e 888 894
e 896 910
e 901 997
e 901 958
e 901 905
e 902 984
e 904 940
e 912 941
e 913 938
e 913 916
e 913 922
e 925 1000
e 930 951
e 932 987
e 934 936
e 936 984
e 937 953
e 941 976
e 941 1000
e 953 959
e 954 959
e 961 976
e 964 982
