txt_Ins/graph-1000-902.txt
n 1000
e 0 789
e 0 989
e 0 85
e 1 752
e 1 983
e 1 164
e 1 234
e 1 846
e 4 219
e 4 149
e 4 592
e 4 619
e 4 101
e 5 407
e 5 94
e 5 336
e 5 192
e 6 576
e 6 585
e 6 516
e 6 578
e 7 174
e 7 243
e 7 339
e 7 737
e 7 645
e 7 85
e 7 742
e 7 775
e 7 856
e 9 701
e 9 685
e 9 684
e 10 728
e 10 423
e 10 856
e 11 47
e 11 274
e 11 220
e 11 490
e 11 336
e 12 608
e 12 307
e 12 238
e 12 135
e 13 882
e 13 576
e 13 482
e 13 143
e 14 644
e 14 370
e 14 278
e 14 881
e 14 598
e 14 308
e 16 888
e 16 345
e 16 921
e 16 541
e 17 636
e 17 688
e 17 306
e 18 430
e 18 513
e 18 761
e 19 129
e 19 255
e 19 640
e 19 639
e 19 402
e 21 90
e 21 108
e 21 205
e 21 832
e 22 907
e 22 470
e 22 93
e 22 713
e 23 710
e 23 446
e 23 500
e 23 812
e 23 670
e 23 859
e 25 619
e 25 779
e 25 978
e 27 318
e 27 844
e 27 760
e 27 746
e 27 606
e 28 137
e 28 748
e 28 590
e 28 634
e 28 185
e 28 236
e 28 778
e 28 81
e 29 217
e 29 970
e 29 333
e 29 131
e 29 50
e 30 926
e 30 823
e 30 514
e 30 544
e 31 126
e 31 407
e 31 870
e 32 885
e 32 572
e 32 260
e 33 395
e 33 817
e 33 944
e 33 561
e 35 317
e 35 537
e 35 402
e 37 459
e 37 596
e 37 331
e 37 765
e 37 226
e 37 272
e 38 340
e 38 539
e 38 270
e 38 953
e 38 763
e 40 342
e 40 729
e 40 792
e 42 584
e 42 377
e 42 991
e 45 652
e 45 880
e 45 949
e 45 473
e 46 261
e 46 869
e 46 107
e 46 270
e 47 510
e 47 263
e 47 518
e 47 524
e 47 315
e 48 497
e 48 591
e 48 141
e 48 406
e 49 424
e 49 734
e 49 291
e 50 117
e 50 875
e 50 677
e 50 684
e 50 587
e 50 649
e 50 941
e 53 884
e 53 960
e 53 192
e 53 496
e 54 735
e 54 139
e 54 772
e 55 582
e 55 312
e 55 533
e 60 478
e 60 160
e 60 426
e 60 354
e 60 657
e 61 392
e 61 676
e 61 78
e 61 84
e 63 350
e 63 963
e 63 985
e 64 696
e 64 649
e 64 669
e 64 652
e 65 262
e 65 500
e 65 739
e 65 953
e 65 923
e 65 491
e 67 471
e 67 358
e 67 982
e 67 759
e 67 260
e 67 68
e 67 331
e 67 522
e 67 248
e 67 274
e 67 86
e 68 271
e 68 942
e 68 969
e 68 426
e 68 918
e 70 656
e 70 187
e 70 309
e 71 616
e 71 658
e 71 704
e 71 223
e 72 714
e 72 437
e 72 351
e 74 662
e 74 327
e 74 606
e 74 841
e 74 381
e 74 384
e 75 199
e 75 661
e 75 521
e 75 976
e 77 862
e 77 236
e 77 568
e 77 352
e 77 559
e 78 793
e 78 496
e 78 248
e 78 592
e 79 288
e 79 240
e 79 172
e 79 849
e 80 947
e 80 411
e 80 178
e 80 500
e 80 139
e 80 852
e 81 186
e 81 775
e 82 716
e 82 695
e 82 679
e 82 206
e 82 99
e 84 522
e 84 930
e 85 267
e 85 889
e 85 479
e 86 132
e 86 557
e 86 573
e 86 507
e 86 103
e 86 663
e 86 598
e 86 679
e 87 485
e 87 548
e 87 341
e 87 225
e 87 777
e 87 286
e 88 444
e 88 559
e 88 400
e 88 993
e 88 303
e 89 205
e 89 518
e 89 211
e 90 710
e 90 430
e 90 893
e 90 318
e 92 209
e 92 213
e 92 545
e 93 527
e 93 588
e 93 157
e 93 989
e 93 430
e 93 593
e 94 337
e 94 923
e 94 154
e 94 469
e 94 590
e 94 953
e 95 241
e 95 193
e 95 200
e 95 892
e 95 778
e 95 981
e 95 392
e 96 849
e 96 98
e 96 507
e 96 666
e 96 660
e 96 121
e 96 598
e 96 221
e 97 492
e 97 887
e 97 424
e 97 550
e 98 953
e 98 677
e 99 732
e 99 642
e 100 257
e 100 402
e 100 338
e 100 269
e 100 949
e 100 581
e 101 263
e 101 977
e 101 355
e 102 631
e 102 589
e 102 885
e 102 888
e 103 707
e 103 851
e 103 635
e 103 362
e 103 676
e 106 108
e 106 248
e 106 871
e 106 336
e 106 595
e 107 356
e 107 281
e 107 926
e 107 250
e 107 510
e 108 348
e 108 773
e 108 951
e 108 908
e 109 262
e 109 356
e 109 505
e 109 606
e 109 287
e 109 594
e 111 366
e 111 595
e 111 977
e 111 507
e 111 508
e 111 266
e 112 431
e 112 841
e 112 414
e 115 388
e 115 189
e 115 404
e 115 662
e 115 869
e 115 506
e 116 573
e 116 513
e 116 469
e 117 704
e 117 407
e 117 952
e 117 884
e 117 448
e 118 187
e 118 681
e 118 606
e 119 954
e 119 456
e 119 929
e 119 735
e 119 516
e 119 626
e 119 631
e 119 303
e 119 916
e 121 242
e 121 347
e 123 384
e 123 799
e 123 251
e 123 465
e 124 218
e 124 382
e 124 557
e 126 640
e 126 164
e 126 384
e 126 348
e 126 355
e 127 220
e 127 246
e 127 538
e 127 141
e 127 601
e 129 149
e 129 640
e 129 910
e 129 172
e 129 407
e 130 553
e 130 146
e 130 132
e 131 902
e 131 414
e 131 427
e 132 284
e 132 288
e 132 216
e 132 864
e 133 761
e 133 837
e 133 723
e 133 662
e 134 983
e 134 405
e 134 639
e 135 474
e 135 324
e 135 419
e 135 363
e 135 574
e 137 193
e 137 658
e 137 962
e 137 687
e 137 841
e 138 988
e 138 968
e 138 618
e 138 165
e 138 643
e 139 656
e 139 871
e 139 663
e 141 523
e 141 595
e 141 366
e 141 644
e 141 545
e 141 763
e 141 762
e 142 593
e 142 777
e 142 708
e 142 169
e 142 203
e 143 423
e 143 241
e 146 404
e 146 421
e 146 167
e 146 847
e 148 634
e 148 625
e 148 209
e 148 354
e 148 526
e 148 726
e 149 188
e 149 457
e 149 889
e 150 605
e 150 754
e 150 379
e 150 439
e 150 985
e 151 585
e 151 339
e 151 654
e 151 258
e 151 200
e 151 619
e 152 607
e 152 756
e 152 504
e 153 742
e 153 592
e 153 281
e 153 353
e 153 194
e 154 596
e 154 273
e 155 500
e 155 351
e 155 357
e 155 465
e 156 798
e 156 874
e 156 497
e 157 639
e 157 634
e 158 956
e 158 849
e 158 892
e 158 709
e 160 198
e 160 495
e 160 471
e 162 388
e 162 640
e 162 726
e 162 377
e 164 503
e 164 791
e 164 943
e 164 198
e 165 900
e 165 834
e 165 775
e 165 258
e 166 408
e 166 299
e 166 924
e 167 330
e 167 788
e 168 901
e 168 387
e 168 410
e 168 193
e 169 854
e 169 808
e 169 874
e 172 196
e 172 577
e 172 446
e 172 408
e 173 326
e 173 505
e 173 888
e 174 670
e 174 816
e 177 663
e 177 185
e 177 999
e 177 361
e 177 615
e 178 720
e 178 332
e 178 182
e 179 644
e 179 968
e 179 584
e 179 480
e 180 530
e 180 931
e 180 271
e 180 447
e 180 666
e 181 445
e 181 579
e 181 681
e 181 545
e 182 440
e 182 341
e 182 592
e 184 792
e 184 937
e 184 338
e 185 266
e 185 648
e 185 295
e 185 969
e 185 591
e 185 395
e 185 362
e 186 958
e 186 889
e 186 355
e 186 882
e 187 527
e 188 778
e 188 481
e 188 568
e 188 697
e 188 521
e 188 978
e 189 578
e 189 907
e 189 522
e 189 462
e 189 986
e 189 604
e 190 366
e 190 956
e 190 875
e 190 930
e 190 618
e 190 496
e 192 639
e 192 298
e 193 303
e 193 632
e 193 577
e 194 685
e 194 263
e 194 819
e 195 728
e 195 362
e 195 522
e 195 607
e 195 242
e 195 531
e 195 678
e 196 213
e 196 654
e 196 349
e 196 374
e 197 496
e 197 377
e 197 537
e 197 334
e 198 908
e 198 325
e 199 949
e 199 296
e 199 407
e 200 550
e 200 741
e 200 468
e 200 370
e 200 682
e 201 256
e 201 581
e 201 511
e 201 255
e 202 960
e 202 884
e 202 710
e 202 463
e 203 492
e 203 537
e 203 514
e 205 789
e 206 999
e 206 401
e 206 261
e 207 262
e 207 436
e 207 901
e 208 745
e 208 621
e 208 950
e 208 633
e 208 405
e 208 478
e 209 581
e 209 529
e 210 223
e 210 928
e 210 407
e 210 382
e 210 445
e 210 479
e 211 852
e 211 218
e 211 717
e 211 873
e 211 798
e 212 522
e 212 266
e 212 472
e 212 889
e 212 713
e 213 401
e 213 789
e 213 695
e 213 768
e 213 664
e 213 452
e 213 706
e 214 506
e 214 577
e 214 501
e 216 537
e 216 284
e 216 608
e 216 383
e 216 419
e 216 897
e 216 930
e 216 242
e 217 965
e 217 906
e 218 749
e 218 357
e 218 844
e 218 600
e 218 618
e 219 389
e 219 980
e 219 644
e 219 878
e 220 850
e 220 697
e 220 233
e 221 418
e 221 729
e 221 530
e 222 346
e 222 669
e 222 335
e 222 234
e 222 696
e 222 526
e 223 807
e 223 584
e 225 227
e 225 886
e 226 442
e 226 500
e 227 384
e 227 369
e 229 286
e 229 304
e 229 245
e 229 562
e 231 900
e 231 250
e 231 388
e 231 352
e 231 722
e 231 672
e 233 575
e 233 764
e 234 593
e 234 988
e 234 806
e 234 618
e 236 656
e 236 540
e 236 968
e 237 356
e 237 763
e 237 456
e 237 723
e 238 309
e 238 323
e 238 875
e 240 899
e 240 516
e 240 865
e 241 639
e 242 409
e 242 481
e 242 469
e 243 817
e 243 841
e 243 485
e 243 261
e 245 506
e 245 664
e 245 957
e 245 721
e 245 689
e 246 969
e 246 764
e 247 354
e 247 685
e 247 366
e 247 723
e 247 645
e 248 965
e 249 567
e 249 259
e 249 491
e 250 796
e 250 457
e 250 775
e 251 372
e 251 928
e 251 926
e 253 440
e 253 271
e 253 605
e 253 780
e 254 832
e 254 943
e 254 862
e 254 983
e 255 881
e 255 994
e 255 573
e 255 612
e 255 498
e 255 511
e 255 944
e 255 307
e 256 609
e 256 741
e 256 582
e 256 908
e 257 316
e 257 899
e 257 657
e 257 532
e 257 365
e 258 262
e 258 643
e 259 538
e 259 634
e 259 546
e 259 397
e 259 619
e 260 650
e 260 549
e 260 281
e 260 496
e 261 645
e 261 468
e 261 512
e 262 663
e 262 517
e 262 444
e 263 409
e 263 830
e 264 328
e 264 575
e 264 857
e 264 889
e 264 416
e 266 743
e 266 537
e 266 569
e 266 601
e 266 475
e 266 437
e 267 632
e 267 974
e 267 589
e 269 532
e 269 730
e 270 616
e 270 418
e 271 706
e 271 915
e 272 303
e 272 573
e 272 511
e 272 580
e 273 644
e 273 531
e 273 598
e 274 368
e 277 321
e 277 369
e 277 680
e 278 835
e 278 831
e 280 458
e 280 654
e 280 747
e 280 504
e 280 619
e 280 842
e 281 649
e 281 629
e 283 681
e 283 510
e 283 437
e 283 511
e 283 388
e 284 851
e 284 733
e 286 295
e 286 839
e 286 993
e 286 748
e 287 437
e 287 365
e 287 391
e 287 392
e 287 303
e 288 795
e 291 716
e 291 696
e 291 483
e 292 939
e 292 817
e 292 819
e 295 395
e 295 496
e 295 608
e 296 902
e 296 708
e 296 991
e 296 865
e 297 688
e 297 842
e 297 310
e 297 725
e 297 696
e 298 465
e 298 704
e 299 374
e 299 389
e 301 800
e 301 643
e 301 500
e 302 397
e 302 839
e 302 710
e 302 375
e 302 753
e 302 560
e 302 966
e 303 634
e 303 829
e 304 552
e 304 922
e 304 668
e 304 854
e 306 349
e 306 331
e 306 471
e 306 498
e 306 517
e 307 710
e 307 904
e 308 798
e 308 519
e 308 859
e 308 670
e 308 348
e 308 900
e 308 593
e 309 459
e 309 903
e 309 996
e 310 955
e 310 927
e 310 844
e 312 621
e 312 992
e 315 897
e 315 632
e 315 849
e 316 943
e 316 955
e 316 333
e 317 830
e 317 654
e 317 568
e 317 663
e 317 650
e 318 763
e 318 530
e 318 456
e 321 338
e 321 556
e 321 419
e 321 518
e 322 558
e 322 592
e 322 431
e 322 868
e 323 516
e 323 996
e 323 954
e 323 588
e 324 946
e 324 704
e 324 405
e 324 929
e 324 463
e 325 498
e 325 794
e 325 893
e 325 448
e 326 594
e 326 711
e 327 383
e 327 770
e 327 431
e 327 968
e 327 334
e 328 676
e 328 930
e 328 804
e 330 696
e 330 571
e 330 974
e 330 342
e 330 772
e 330 985
e 332 910
e 332 414
e 333 668
e 333 568
e 333 424
e 333 835
e 333 621
e 334 954
e 334 395
e 335 527
e 335 560
e 336 353
e 336 526
e 337 353
e 337 970
e 337 951
e 337 833
e 338 795
e 338 356
e 338 747
e 339 722
e 340 899
e 340 690
e 340 625
e 340 855
e 340 562
e 341 668
e 341 491
e 341 346
e 341 916
e 341 816
e 342 935
e 342 792
e 342 851
e 344 918
e 344 652
e 344 503
e 345 408
e 345 966
e 345 479
e 345 531
e 346 600
e 346 884
e 346 748
e 347 904
e 347 765
e 347 793
e 348 944
e 349 555
e 349 497
e 349 940
e 349 775
e 349 926
e 350 447
e 350 935
e 351 914
e 351 642
e 351 742
e 351 693
e 352 739
e 353 440
e 354 519
e 354 947
e 354 796
e 355 903
e 355 794
e 356 387
e 356 877
e 356 697
e 356 752
e 357 519
e 358 457
e 358 897
e 358 891
e 358 894
e 360 897
e 360 698
e 360 947
e 360 590
e 360 633
e 361 774
e 361 933
e 362 608
e 363 563
e 363 637
e 363 626
e 363 684
e 363 490
e 365 633
e 365 635
e 365 765
e 365 474
e 365 621
e 366 824
e 366 596
e 366 562
e 366 495
e 366 927
e 367 943
e 367 675
e 367 688
e 367 906
e 368 427
e 368 934
e 368 732
e 369 508
e 369 696
e 370 713
e 372 836
e 372 954
e 374 446
e 374 473
e 374 857
e 374 739
e 375 882
e 375 818
e 376 779
e 376 856
e 376 972
e 377 579
e 377 720
e 377 889
e 377 699
e 379 678
e 379 572
e 380 777
e 380 910
e 380 824
e 380 816
e 381 939
e 381 862
e 381 779
e 381 833
e 381 895
e 382 950
e 382 383
e 382 480
e 382 466
e 382 895
e 383 923
e 383 516
e 384 645
e 384 827
e 384 772
e 384 845
e 384 452
e 384 498
e 384 408
e 384 516
e 387 619
e 387 680
e 387 918
e 389 456
e 391 444
e 391 902
e 391 745
e 391 753
e 395 460
e 395 737
e 395 831
e 395 543
e 397 970
e 397 530
e 397 976
e 397 720
e 399 567
e 399 424
e 399 839
e 400 869
e 400 468
e 400 706
e 400 833
e 401 647
e 401 690
e 402 484
e 402 449
e 402 534
e 402 839
e 403 592
e 403 586
e 403 888
e 403 834
e 404 937
e 404 775
e 405 767
e 405 625
e 405 496
e 406 728
e 406 892
e 406 963
e 406 844
e 406 754
e 407 875
e 407 862
e 407 963
e 409 701
e 409 799
e 409 641
e 410 966
e 410 850
e 411 903
e 411 762
e 414 717
e 416 713
e 416 793
e 418 742
e 418 478
e 418 459
e 418 873
e 419 593
e 420 707
e 420 809
e 420 623
e 421 847
e 421 975
e 422 539
e 422 488
e 422 567
e 423 821
e 423 740
e 423 831
e 423 695
e 423 880
e 424 908
e 424 857
e 425 769
e 425 984
e 425 563
e 425 863
e 425 715
e 425 994
e 426 781
e 427 979
e 427 739
e 427 561
e 430 564
e 430 673
e 431 532
e 431 710
e 431 745
e 434 649
e 434 911
e 434 808
e 436 874
e 436 709
e 436 577
e 437 775
e 437 701
e 437 449
e 437 673
e 439 556
e 439 590
e 439 939
e 439 745
e 439 454
e 440 916
e 440 934
e 440 796
e 441 879
e 441 717
e 441 740
e 442 939
e 442 754
e 442 740
e 444 587
e 444 624
e 445 773
e 445 873
e 446 721
e 446 567
e 446 728
e 447 490
e 448 734
e 449 623
e 449 496
e 452 533
e 452 668
e 452 947
e 452 812
e 452 784
e 454 647
e 454 931
e 454 969
e 456 502
e 456 605
e 456 511
e 456 630
e 457 661
e 458 660
e 458 475
e 458 758
e 459 946
e 459 553
e 459 660
e 460 488
e 460 613
e 461 615
e 461 875
e 461 642
e 461 681
e 461 923
e 462 993
e 462 868
e 463 780
e 463 663
e 463 827
e 465 727
e 466 891
e 466 469
e 466 722
e 467 818
e 467 534
e 467 655
e 467 805
e 468 730
e 469 556
e 469 756
e 469 982
e 469 656
e 470 648
e 470 933
e 470 661
e 471 645
e 471 661
e 471 735
e 472 770
e 472 745
e 472 951
e 473 574
e 473 660
e 473 858
e 474 830
e 474 929
e 474 655
e 475 909
e 475 625
e 478 678
e 478 608
e 478 899
e 479 837
e 479 590
e 479 604
e 480 595
e 481 661
e 482 720
e 482 941
e 482 608
e 483 994
e 483 942
e 484 690
e 484 982
e 484 728
e 484 591
e 484 850
e 485 846
e 485 695
e 485 859
e 485 500
e 488 888
e 491 918
e 491 680
e 491 765
e 492 700
e 492 769
e 495 585
e 496 619
e 496 894
e 496 563
e 497 514
e 497 912
e 498 675
e 498 524
e 500 508
e 500 619
e 500 535
e 500 884
e 501 645
e 501 713
e 501 775
e 502 766
e 502 592
e 503 880
e 504 915
e 505 904
e 505 900
e 506 657
e 506 979
e 507 789
e 507 802
e 508 837
e 508 768
e 510 749
e 510 856
e 510 722
e 511 736
e 511 780
e 512 804
e 512 779
e 513 977
e 513 637
e 513 806
e 513 950
e 513 648
e 516 833
e 516 795
e 517 658
e 517 683
e 517 801
e 518 988
e 519 587
e 519 698
e 519 762
e 521 695
e 521 642
e 522 829
e 522 925
e 523 683
e 523 834
e 524 710
e 524 833
e 524 562
e 524 929
e 527 860
e 527 821
e 529 879
e 529 768
e 529 592
e 529 625
e 531 542
e 531 555
e 531 549
e 531 865
e 532 660
e 532 604
e 533 993
e 533 716
e 534 540
e 534 881
e 534 714
e 534 957
e 535 679
e 535 571
e 537 747
e 537 607
e 537 838
e 537 821
e 538 877
e 539 805
e 539 818
e 540 570
e 540 835
e 540 560
e 541 682
e 541 710
e 541 901
e 542 793
e 542 970
e 543 688
e 543 992
e 543 750
e 544 788
e 544 795
e 545 721
e 545 999
e 546 580
e 546 991
e 548 768
e 548 720
e 549 555
e 549 886
e 550 855
e 550 727
e 550 693
e 550 846
e 552 766
e 552 877
e 552 909
e 553 966
e 555 852
e 555 968
e 557 962
e 558 887
e 558 663
e 559 587
e 559 644
e 560 748
e 561 814
e 561 572
e 561 769
e 561 780
e 562 654
e 563 953
e 564 582
e 564 911
e 567 846
e 567 636
e 567 685
e 568 858
e 569 792
e 569 856
e 569 796
e 570 645
e 570 778
e 571 758
e 571 902
e 572 914
e 572 655
e 572 741
e 573 960
e 573 845
e 574 807
e 574 730
e 574 994
e 574 960
e 575 805
e 576 735
e 576 753
e 576 750
e 576 737
e 577 677
e 577 725
e 578 870
e 579 984
e 580 616
e 582 767
e 584 870
e 585 789
e 586 717
e 586 814
e 587 940
e 587 928
e 588 640
e 588 911
e 589 863
e 591 742
e 591 634
e 593 977
e 594 621
e 595 721
e 595 996
e 595 734
e 598 989
e 600 956
e 600 663
e 601 903
e 601 824
e 604 608
e 605 699
e 605 685
e 605 672
e 606 954
e 606 698
e 606 906
e 607 860
e 607 888
e 607 880
e 608 985
e 608 730
e 609 808
e 609 924
e 611 928
e 611 704
e 611 715
e 612 740
e 612 986
e 612 836
e 612 943
e 612 947
e 613 821
e 613 943
e 615 689
e 618 759
e 618 850
e 618 752
e 621 868
e 623 916
e 624 662
e 624 657
e 625 849
e 625 927
e 626 862
e 626 996
e 626 629
e 626 965
e 626 963
e 628 760
e 628 759
e 628 832
e 629 827
e 630 885
e 630 947
e 631 879
e 632 791
e 632 889
e 633 812
e 634 929
e 635 639
e 635 978
e 636 772
e 637 823
e 637 906
e 640 770
e 641 658
e 641 864
e 642 762
e 643 941
e 643 695
e 644 708
e 644 754
e 644 832
e 645 725
e 647 921
e 647 918
e 648 675
e 649 950
e 649 773
e 649 902
e 649 761
e 650 880
e 650 972
e 652 819
e 654 715
e 654 655
e 656 980
e 656 862
e 657 877
e 658 727
e 660 835
e 661 863
e 662 878
e 662 697
e 663 678
e 664 777
e 664 885
e 664 707
e 664 911
e 666 952
e 666 915
e 666 926
e 668 871
e 669 974
e 670 992
e 670 677
e 670 888
e 672 975
e 672 714
e 673 740
e 673 746
e 675 962
e 676 716
e 676 794
e 676 873
e 677 900
e 677 774
e 678 903
e 680 894
e 680 992
e 680 845
e 681 847
e 682 869
e 683 994
e 685 775
e 685 743
e 687 723
e 687 854
e 687 713
e 688 996
e 688 974
e 689 944
e 689 697
e 690 700
e 693 897
e 693 976
e 696 936
e 696 767
e 697 706
e 699 721
e 699 870
e 700 881
e 701 981
e 706 759
e 706 792
e 707 922
e 707 777
e 709 836
e 710 980
e 711 931
e 711 836
e 714 873
e 715 740
e 717 894
e 717 983
e 720 830
e 720 965
e 722 873
e 726 814
e 726 753
e 727 851
e 727 842
e 729 846
e 730 789
e 732 935
e 732 878
e 732 842
e 733 924
e 733 983
e 734 864
e 734 975
e 736 833
e 736 805
e 737 768
e 737 897
e 742 907
e 743 801
e 743 955
e 745 979
e 745 968
e 746 767
e 747 958
e 747 789
e 748 807
e 749 805
e 749 986
e 750 911
e 752 952
e 752 858
e 754 793
e 754 760
e 756 980
e 758 886
e 758 851
e 758 946
e 759 958
e 763 791
e 763 899
e 764 952
e 766 892
e 766 925
e 774 878
e 775 939
e 778 950
e 779 881
e 780 891
e 781 807
e 781 817
e 781 789
e 784 902
e 784 819
e 788 963
e 789 987
e 791 902
e 791 885
e 791 849
e 793 899
e 793 838
e 794 814
e 796 829
e 796 855
e 799 802
e 800 854
e 800 897
e 800 986
e 801 974
e 802 818
e 804 933
e 806 902
e 806 839
e 808 879
e 808 987
e 808 956
e 809 956
e 809 987
e 814 845
e 817 824
e 818 991
e 818 976
e 823 914
e 824 984
e 827 922
e 829 873
e 834 899
e 835 911
e 836 875
e 836 925
e 837 911
e 838 863
e 841 957
e 841 930
e 844 972
e 845 921
e 850 984
e 850 923
e 855 942
e 856 951
e 859 930
e 860 911
e 864 936
e 868 904
e 870 947
e 871 994
e 873 909
e 873 934
e 875 915
e 879 952
e 880 966
e 887 893
e 895 909
e 900 996
e 900 957
e 900 904
e 901 983
e 903 939
e 911 940
e 912 937
e 912 915
e 912 921
e 924 999
e 929 950
e 931 986
e 933 935
e 935 983
e 936 952
e 940 975
e 940 999
e 952 958
e 953 958
e 960 975
e 963 981
